[2026-03-24T16:34:29.136Z] Pipeline "set_vm-3-t3_vm-3-t3_s004_g001" → 2026_03_24_16_34_29_set_vm-3-t3_vm-3-t3_s004_g001_max.sol
Set parameter Username
Set parameter LicenseID to value 2796068
Set parameter LogFile to value "gurobi.log"
Using license file /opt/gurobi/gurobi.lic
Academic license - for non-commercial use only - expires 2027-03-23

Gurobi Optimizer version 13.0.1 build v13.0.1rc0 (linux64 - "Ubuntu 24.04.4 LTS")
Copyright (c) 2026, Gurobi Optimization, LLC

Warning: Duplicate section found (read 'binary') - Is a variable name equal to an LP file format keyword?
Warning: Duplicate section found (read 'binary') - Is a variable name equal to an LP file format keyword?
Warning: Duplicate section found (read 'binary') - Is a variable name equal to an LP file format keyword?
Warning: Duplicate section found (read 'binary') - Is a variable name equal to an LP file format keyword?
Warning: Duplicate section found (read 'binary') - Is a variable name equal to an LP file format keyword?
Warning: Duplicate section found (read 'binary') - Is a variable name equal to an LP file format keyword?
Warning: Duplicate section found (read 'binary') - Is a variable name equal to an LP file format keyword?
Warning: Duplicate section found (read 'binary') - Is a variable name equal to an LP file format keyword?
Warning: Duplicate section found (read 'binary') - Is a variable name equal to an LP file format keyword?
Warning: Duplicate section found (read 'binary') - Is a variable name equal to an LP file format keyword?
Warning: Further warnings of this type will be omitted.
Read LP format model from file /root/bgw/data/uploads/2026_03_24_16_34_29_set_vm-3-t3_vm-3-t3_s004_g001_max.lp
Reading time = 0.00 seconds
: 1518 rows, 246 columns, 4298 nonzeros

Using Gurobi shared library /opt/gurobi1301/linux64/lib/libgurobi.so.13.0.1

CPU model: AMD EPYC-Genoa Processor, instruction set [SSE2|AVX|AVX2|AVX512]
Thread count: 16 physical cores, 16 logical processors, using up to 16 threads

Optimize a model with 1518 rows, 246 columns and 4298 nonzeros (Max)
Model fingerprint: 0xc798240e
Model has 84 linear objective coefficients
Variable types: 98 continuous, 148 integer (148 binary)
Coefficient statistics:
  Matrix range     [1e+00, 2e+01]
  Objective range  [1e+00, 1e+00]
  Bounds range     [1e+00, 1e+00]
  RHS range        [1e+00, 2e+01]

Found heuristic solution: objective 84.0000000
Presolve removed 722 rows and 116 columns
Presolve time: 0.01s
Presolved: 796 rows, 130 columns, 2498 nonzeros
Variable types: 0 continuous, 130 integer (120 binary)
Found heuristic solution: objective 188.0000000

Root relaxation: objective 5.340000e+02, 131 iterations, 0.00 seconds (0.00 work units)

    Nodes    |    Current Node    |     Objective Bounds      |     Work
 Expl Unexpl |  Obj  Depth IntInf | Incumbent    BestBd   Gap | It/Node Time

     0     0  534.00000    0   51  188.00000  534.00000   184%     -    0s
H    0     0                     189.0000000  534.00000   183%     -    0s
H    0     0                     204.0000000  534.00000   162%     -    0s
     0     0  534.00000    0   52  204.00000  534.00000   162%     -    0s
H    0     0                     218.0000000  534.00000   145%     -    0s
     0     0  534.00000    0   51  218.00000  534.00000   145%     -    0s
     0     0  534.00000    0   50  218.00000  534.00000   145%     -    0s
H    0     0                     219.0000000  534.00000   144%     -    0s
     0     0  534.00000    0   52  219.00000  534.00000   144%     -    0s
     0     0  534.00000    0   50  219.00000  534.00000   144%     -    0s
     0     0  534.00000    0   53  219.00000  534.00000   144%     -    0s
     0     0  534.00000    0   50  219.00000  534.00000   144%     -    0s
     0     0  533.00000    0   49  219.00000  533.00000   143%     -    0s
     0     0  533.00000    0   49  219.00000  533.00000   143%     -    0s
     0     0  533.00000    0   50  219.00000  533.00000   143%     -    0s
     0     0  533.00000    0   50  219.00000  533.00000   143%     -    0s
     0     0  532.75000    0   50  219.00000  532.75000   143%     -    0s
     0     0  532.75000    0   50  219.00000  532.75000   143%     -    0s
     0     2  532.75000    0   44  219.00000  532.75000   143%     -    0s
H   27    24                     233.0000000  531.50000   128%  39.6    0s
 76174  8597 infeasible   38       233.00000  289.50000  24.2%  21.1    5s

Cutting planes:
  Gomory: 4
  MIR: 1
  Inf proof: 2
  Zero half: 1

Explored 123659 nodes (2712813 simplex iterations) in 7.38 seconds (10.68 work units)
Thread count was 16 (of 16 available processors)

Solution count 10: 233 233 233 ... 84

Optimal solution found (tolerance 1.00e-04)
Best objective 2.330000000000e+02, best bound 2.330000000000e+02, gap 0.0000%

Wrote result file '/root/bgw/data/results/2026_03_24_16_34_29_set_vm-3-t3_vm-3-t3_s004_g001_max.sol'

